
Gurobi 8.1.0 (mac64, Python) logging started Tue Mar  5 22:35:23 2019

Academic license - for non-commercial use only

Gurobi 8.1.0 (mac64, Python) logging started Wed Mar  6 10:38:46 2019

Academic license - for non-commercial use only

Gurobi 8.1.0 (mac64, Python) logging started Wed Mar  6 10:53:03 2019

Academic license - for non-commercial use only

Gurobi 8.1.0 (mac64, Python) logging started Wed Mar  6 10:55:42 2019

Academic license - for non-commercial use only

Gurobi 8.1.0 (mac64, Python) logging started Wed Mar  6 11:23:43 2019

Academic license - for non-commercial use only

Gurobi 8.1.0 (mac64, Python) logging started Wed Mar  6 11:25:33 2019

Academic license - for non-commercial use only

Gurobi 8.1.0 (mac64, Python) logging started Wed Mar  6 11:27:28 2019

Academic license - for non-commercial use only

Gurobi 8.1.0 (mac64, Python) logging started Wed Mar  6 11:29:23 2019

Academic license - for non-commercial use only

Gurobi 8.1.0 (mac64, Python) logging started Wed Mar  6 11:30:53 2019

Academic license - for non-commercial use only

Gurobi 8.1.0 (mac64, Python) logging started Wed Mar  6 11:49:37 2019

Academic license - for non-commercial use only

Gurobi 8.1.0 (mac64, Python) logging started Wed Mar  6 12:02:20 2019

Academic license - for non-commercial use only

Gurobi 8.1.0 (mac64, Python) logging started Wed Mar  6 12:57:10 2019

Academic license - for non-commercial use only

Gurobi 8.1.0 (mac64, Python) logging started Wed Mar  6 13:04:41 2019

Academic license - for non-commercial use only

Gurobi 8.1.0 (mac64, Python) logging started Wed Mar  6 13:05:53 2019

Academic license - for non-commercial use only

Gurobi 8.1.0 (mac64, Python) logging started Wed Mar  6 13:06:38 2019

Academic license - for non-commercial use only

Gurobi 8.1.0 (mac64, Python) logging started Wed Mar  6 13:08:01 2019

Academic license - for non-commercial use only

Gurobi 8.1.0 (mac64, Python) logging started Wed Mar  6 13:47:01 2019

Academic license - for non-commercial use only

Gurobi 8.1.0 (mac64, Python) logging started Wed Mar  6 13:57:37 2019

Academic license - for non-commercial use only

Gurobi 8.1.0 (mac64, Python) logging started Wed Mar  6 14:01:20 2019

Academic license - for non-commercial use only

Gurobi 8.1.0 (mac64, Python) logging started Wed Mar  6 14:03:55 2019

Academic license - for non-commercial use only

Gurobi 8.1.0 (mac64, Python) logging started Wed Mar  6 14:04:29 2019

Academic license - for non-commercial use only

Gurobi 8.1.0 (mac64, Python) logging started Wed Mar  6 14:08:42 2019

Academic license - for non-commercial use only

Gurobi 8.1.0 (mac64, Python) logging started Wed Mar  6 14:13:17 2019

Academic license - for non-commercial use only

Gurobi 8.1.0 (mac64, Python) logging started Wed Mar  6 14:19:06 2019

Academic license - for non-commercial use only

Gurobi 8.1.0 (mac64, Python) logging started Wed Mar  6 15:21:35 2019

Academic license - for non-commercial use only

Gurobi 8.1.0 (mac64, Python) logging started Wed Mar  6 15:29:13 2019

Academic license - for non-commercial use only

Gurobi 8.1.0 (mac64, Python) logging started Wed Mar  6 15:33:32 2019

Academic license - for non-commercial use only

Gurobi 8.1.0 (mac64, Python) logging started Wed Mar  6 15:34:28 2019

Academic license - for non-commercial use only

Gurobi 8.1.0 (mac64, Python) logging started Wed Mar  6 15:41:33 2019

Academic license - for non-commercial use only

Gurobi 8.1.0 (mac64, Python) logging started Wed Mar  6 16:18:27 2019

Academic license - for non-commercial use only

Gurobi 8.1.0 (mac64, Python) logging started Wed Mar  6 16:18:52 2019

Academic license - for non-commercial use only

Gurobi 8.1.0 (mac64, Python) logging started Wed Mar  6 16:19:49 2019

Academic license - for non-commercial use only

Gurobi 8.1.0 (mac64, Python) logging started Wed Mar  6 16:20:25 2019

Academic license - for non-commercial use only

Gurobi 8.1.0 (mac64, Python) logging started Wed Mar  6 16:20:51 2019

Academic license - for non-commercial use only

Gurobi 8.1.0 (mac64, Python) logging started Thu Mar  7 16:13:45 2019

Academic license - for non-commercial use only

Gurobi 8.1.0 (mac64, Python) logging started Thu Mar  7 16:14:26 2019

Academic license - for non-commercial use only

Gurobi 8.1.0 (mac64, Python) logging started Thu Mar  7 16:15:21 2019

Academic license - for non-commercial use only

Gurobi 8.1.0 (mac64, Python) logging started Thu Mar  7 16:16:00 2019

Academic license - for non-commercial use only

Gurobi 8.1.0 (mac64, Python) logging started Thu Mar  7 16:19:20 2019

Academic license - for non-commercial use only

Gurobi 8.1.0 (mac64, Python) logging started Thu Mar  7 16:20:41 2019

Academic license - for non-commercial use only

Gurobi 8.1.0 (mac64, Python) logging started Thu Mar  7 16:29:56 2019

Academic license - for non-commercial use only

Gurobi 8.1.0 (mac64, Python) logging started Thu Mar  7 16:34:49 2019

Academic license - for non-commercial use only

Gurobi 8.1.0 (mac64, Python) logging started Thu Mar  7 16:34:59 2019

Academic license - for non-commercial use only

Gurobi 8.1.0 (mac64, Python) logging started Thu Mar  7 16:35:13 2019

Academic license - for non-commercial use only

Gurobi 8.1.0 (mac64, Python) logging started Thu Mar  7 16:35:18 2019

Academic license - for non-commercial use only

Gurobi 8.1.0 (mac64, Python) logging started Thu Mar  7 16:35:26 2019

Academic license - for non-commercial use only

Gurobi 8.1.0 (mac64, Python) logging started Thu Mar  7 16:35:28 2019

Academic license - for non-commercial use only

Gurobi 8.1.0 (mac64, Python) logging started Thu Mar  7 16:35:29 2019

Academic license - for non-commercial use only

Gurobi 8.1.0 (mac64, Python) logging started Thu Mar  7 16:35:30 2019

Academic license - for non-commercial use only

Gurobi 8.1.0 (mac64, Python) logging started Thu Mar  7 16:35:31 2019

Academic license - for non-commercial use only

Gurobi 8.1.0 (mac64, Python) logging started Thu Mar  7 16:35:40 2019

Academic license - for non-commercial use only

Gurobi 8.1.0 (mac64, Python) logging started Thu Mar  7 16:35:52 2019

Academic license - for non-commercial use only

Gurobi 8.1.0 (mac64, Python) logging started Thu Mar  7 16:35:54 2019

Academic license - for non-commercial use only

Gurobi 8.1.0 (mac64, Python) logging started Thu Mar  7 16:36:00 2019

Academic license - for non-commercial use only

Gurobi 8.1.0 (mac64, Python) logging started Thu Mar  7 16:36:01 2019

Academic license - for non-commercial use only

Gurobi 8.1.0 (mac64, Python) logging started Thu Mar  7 16:36:03 2019

Academic license - for non-commercial use only

Gurobi 8.1.0 (mac64, Python) logging started Thu Mar  7 16:36:04 2019

Academic license - for non-commercial use only

Gurobi 8.1.0 (mac64, Python) logging started Thu Mar  7 16:36:07 2019

Academic license - for non-commercial use only

Gurobi 8.1.0 (mac64, Python) logging started Thu Mar  7 16:36:16 2019

Academic license - for non-commercial use only

Gurobi 8.1.0 (mac64, Python) logging started Thu Mar  7 16:36:22 2019

Academic license - for non-commercial use only

Gurobi 8.1.0 (mac64, Python) logging started Thu Mar  7 16:36:26 2019

Academic license - for non-commercial use only

Gurobi 8.1.0 (mac64, Python) logging started Thu Mar  7 16:36:29 2019

Academic license - for non-commercial use only

Gurobi 8.1.0 (mac64, Python) logging started Thu Mar  7 16:36:37 2019

Academic license - for non-commercial use only

Gurobi 8.1.0 (mac64, Python) logging started Thu Mar  7 16:36:40 2019

Academic license - for non-commercial use only

Gurobi 8.1.0 (mac64, Python) logging started Thu Mar  7 16:36:44 2019

Academic license - for non-commercial use only

Gurobi 8.1.0 (mac64, Python) logging started Thu Mar  7 16:36:47 2019

Academic license - for non-commercial use only

Gurobi 8.1.0 (mac64, Python) logging started Thu Mar  7 16:36:51 2019

Academic license - for non-commercial use only

Gurobi 8.1.0 (mac64, Python) logging started Thu Mar  7 16:36:57 2019

Academic license - for non-commercial use only

Gurobi 8.1.0 (mac64, Python) logging started Thu Mar  7 16:37:38 2019

Academic license - for non-commercial use only

Gurobi 8.1.0 (mac64, Python) logging started Thu Mar  7 16:37:52 2019

Academic license - for non-commercial use only

Gurobi 8.1.0 (mac64, Python) logging started Thu Mar  7 16:37:56 2019

Academic license - for non-commercial use only

Gurobi 8.1.0 (mac64, Python) logging started Thu Mar  7 16:38:03 2019

Academic license - for non-commercial use only

Gurobi 8.1.0 (mac64, Python) logging started Thu Mar  7 16:39:59 2019

Academic license - for non-commercial use only

Gurobi 8.1.0 (mac64, Python) logging started Thu Mar  7 16:45:46 2019

Academic license - for non-commercial use only

Gurobi 8.1.0 (mac64, Python) logging started Thu Mar  7 16:46:03 2019

Academic license - for non-commercial use only

Gurobi 8.1.0 (mac64, Python) logging started Thu Mar  7 16:46:08 2019

Academic license - for non-commercial use only

Gurobi 8.1.0 (mac64, Python) logging started Thu Mar  7 16:46:31 2019

Academic license - for non-commercial use only

Gurobi 8.1.0 (mac64, Python) logging started Thu Mar  7 16:46:39 2019

Academic license - for non-commercial use only

Gurobi 8.1.0 (mac64, Python) logging started Thu Mar  7 16:46:47 2019

Academic license - for non-commercial use only

Gurobi 8.1.0 (mac64, Python) logging started Thu Mar  7 16:46:58 2019

Academic license - for non-commercial use only

Gurobi 8.1.0 (mac64, Python) logging started Thu Mar  7 16:47:34 2019

Academic license - for non-commercial use only

Gurobi 8.1.0 (mac64, Python) logging started Thu Mar  7 16:47:57 2019

Academic license - for non-commercial use only

Gurobi 8.1.0 (mac64, Python) logging started Thu Mar  7 16:48:16 2019

Academic license - for non-commercial use only

Gurobi 8.1.0 (mac64, Python) logging started Thu Mar  7 16:48:25 2019

Academic license - for non-commercial use only

Gurobi 8.1.0 (mac64, Python) logging started Thu Mar  7 16:48:34 2019

Academic license - for non-commercial use only

Gurobi 8.1.0 (mac64, Python) logging started Thu Mar  7 16:48:52 2019

Academic license - for non-commercial use only

Gurobi 8.1.0 (mac64, Python) logging started Thu Mar  7 16:49:01 2019

Academic license - for non-commercial use only

Gurobi 8.1.0 (mac64, Python) logging started Thu Mar  7 16:50:25 2019

Academic license - for non-commercial use only

Gurobi 8.1.0 (mac64, Python) logging started Thu Mar  7 16:50:44 2019

Academic license - for non-commercial use only

Gurobi 8.1.0 (mac64, Python) logging started Thu Mar  7 16:50:53 2019

Academic license - for non-commercial use only

Gurobi 8.1.0 (mac64, Python) logging started Thu Mar  7 16:51:03 2019

Academic license - for non-commercial use only

Gurobi 8.1.0 (mac64, Python) logging started Thu Mar  7 16:52:35 2019

Academic license - for non-commercial use only

Gurobi 8.1.0 (mac64, Python) logging started Thu Mar  7 16:52:44 2019

Academic license - for non-commercial use only

Gurobi 8.1.0 (mac64, Python) logging started Thu Mar  7 16:52:52 2019

Academic license - for non-commercial use only

Gurobi 8.1.0 (mac64, Python) logging started Thu Mar  7 16:53:11 2019

Academic license - for non-commercial use only

Gurobi 8.1.0 (mac64, Python) logging started Thu Mar  7 16:53:27 2019

Academic license - for non-commercial use only

Gurobi 8.1.0 (mac64, Python) logging started Thu Mar  7 16:53:39 2019

Academic license - for non-commercial use only

Gurobi 8.1.0 (mac64, Python) logging started Thu Mar  7 16:53:56 2019

Academic license - for non-commercial use only

Gurobi 8.1.0 (mac64, Python) logging started Thu Mar  7 16:54:16 2019

Academic license - for non-commercial use only

Gurobi 8.1.0 (mac64, Python) logging started Thu Mar  7 16:54:24 2019

Academic license - for non-commercial use only

Gurobi 8.1.0 (mac64, Python) logging started Thu Mar  7 16:54:28 2019

Academic license - for non-commercial use only

Gurobi 8.1.0 (mac64, Python) logging started Thu Mar  7 16:54:58 2019

Academic license - for non-commercial use only

Gurobi 8.1.0 (mac64, Python) logging started Thu Mar  7 16:55:07 2019

Academic license - for non-commercial use only

Gurobi 8.1.0 (mac64, Python) logging started Thu Mar  7 16:55:19 2019

Academic license - for non-commercial use only

Gurobi 8.1.0 (mac64, Python) logging started Thu Mar  7 16:55:22 2019

Academic license - for non-commercial use only

Gurobi 8.1.0 (mac64, Python) logging started Thu Mar  7 16:57:50 2019

Academic license - for non-commercial use only

Gurobi 8.1.0 (mac64, Python) logging started Thu Mar  7 16:58:17 2019

Academic license - for non-commercial use only

Gurobi 8.1.0 (mac64, Python) logging started Thu Mar  7 16:58:34 2019

Academic license - for non-commercial use only

Gurobi 8.1.0 (mac64, Python) logging started Thu Mar  7 16:58:38 2019

Academic license - for non-commercial use only

Gurobi 8.1.0 (mac64, Python) logging started Thu Mar  7 16:58:55 2019

Academic license - for non-commercial use only

Gurobi 8.1.0 (mac64, Python) logging started Thu Mar  7 16:58:57 2019

Academic license - for non-commercial use only

Gurobi 8.1.0 (mac64, Python) logging started Thu Mar  7 16:58:59 2019

Academic license - for non-commercial use only

Gurobi 8.1.0 (mac64, Python) logging started Thu Mar  7 16:59:01 2019

Academic license - for non-commercial use only

Gurobi 8.1.0 (mac64, Python) logging started Thu Mar  7 16:59:12 2019

Academic license - for non-commercial use only

Gurobi 8.1.0 (mac64, Python) logging started Thu Mar  7 16:59:17 2019

Academic license - for non-commercial use only

Gurobi 8.1.0 (mac64, Python) logging started Thu Mar  7 16:59:19 2019

Academic license - for non-commercial use only

Gurobi 8.1.0 (mac64, Python) logging started Thu Mar  7 16:59:21 2019

Academic license - for non-commercial use only

Gurobi 8.1.0 (mac64, Python) logging started Thu Mar  7 16:59:23 2019

Academic license - for non-commercial use only

Gurobi 8.1.0 (mac64, Python) logging started Thu Mar  7 16:59:26 2019

Academic license - for non-commercial use only

Gurobi 8.1.0 (mac64, Python) logging started Thu Mar  7 16:59:33 2019

Academic license - for non-commercial use only

Gurobi 8.1.0 (mac64, Python) logging started Thu Mar  7 16:59:37 2019

Academic license - for non-commercial use only

Gurobi 8.1.0 (mac64, Python) logging started Thu Mar  7 16:59:39 2019

Academic license - for non-commercial use only

Gurobi 8.1.0 (mac64, Python) logging started Thu Mar  7 16:59:50 2019

Academic license - for non-commercial use only

Gurobi 8.1.0 (mac64, Python) logging started Thu Mar  7 17:09:17 2019

Academic license - for non-commercial use only

Gurobi 8.1.0 (mac64, Python) logging started Thu Mar  7 17:09:27 2019

Academic license - for non-commercial use only

Gurobi 8.1.0 (mac64, Python) logging started Thu Mar  7 17:09:30 2019

Academic license - for non-commercial use only

Gurobi 8.1.0 (mac64, Python) logging started Thu Mar  7 17:09:35 2019

Academic license - for non-commercial use only

Gurobi 8.1.0 (mac64, Python) logging started Thu Mar  7 17:09:48 2019

Academic license - for non-commercial use only

Gurobi 8.1.0 (mac64, Python) logging started Thu Mar  7 17:09:51 2019

Academic license - for non-commercial use only

Gurobi 8.1.0 (mac64, Python) logging started Thu Mar  7 17:09:54 2019

Academic license - for non-commercial use only

Gurobi 8.1.0 (mac64, Python) logging started Thu Mar  7 17:09:57 2019

Academic license - for non-commercial use only

Gurobi 8.1.0 (mac64, Python) logging started Thu Mar  7 17:09:58 2019

Academic license - for non-commercial use only

Gurobi 8.1.0 (mac64, Python) logging started Thu Mar  7 17:10:00 2019

Academic license - for non-commercial use only

Gurobi 8.1.0 (mac64, Python) logging started Thu Mar  7 17:10:02 2019

Academic license - for non-commercial use only

Gurobi 8.1.0 (mac64, Python) logging started Thu Mar  7 17:10:04 2019

Academic license - for non-commercial use only

Gurobi 8.1.0 (mac64, Python) logging started Thu Mar  7 17:10:12 2019

Academic license - for non-commercial use only

Gurobi 8.1.0 (mac64, Python) logging started Thu Mar  7 17:10:14 2019

Academic license - for non-commercial use only

Gurobi 8.1.0 (mac64, Python) logging started Thu Mar  7 17:10:20 2019

Academic license - for non-commercial use only

Gurobi 8.1.0 (mac64, Python) logging started Thu Mar  7 17:10:27 2019

Academic license - for non-commercial use only

Gurobi 8.1.0 (mac64, Python) logging started Thu Mar  7 17:10:33 2019

Academic license - for non-commercial use only

Gurobi 8.1.0 (mac64, Python) logging started Thu Mar  7 17:11:01 2019

Academic license - for non-commercial use only

Gurobi 8.1.0 (mac64, Python) logging started Thu Mar  7 17:11:10 2019

Academic license - for non-commercial use only

Gurobi 8.1.0 (mac64, Python) logging started Thu Mar  7 17:11:13 2019

Academic license - for non-commercial use only

Gurobi 8.1.0 (mac64, Python) logging started Thu Mar  7 17:11:17 2019

Academic license - for non-commercial use only

Gurobi 8.1.0 (mac64, Python) logging started Thu Mar  7 17:12:25 2019

Academic license - for non-commercial use only

Gurobi 8.1.0 (mac64, Python) logging started Thu Mar  7 17:12:30 2019

Academic license - for non-commercial use only

Gurobi 8.1.0 (mac64, Python) logging started Thu Mar  7 17:12:34 2019

Academic license - for non-commercial use only

Gurobi 8.1.0 (mac64, Python) logging started Thu Mar  7 17:12:37 2019

Academic license - for non-commercial use only

Gurobi 8.1.0 (mac64, Python) logging started Thu Mar  7 17:12:49 2019

Academic license - for non-commercial use only

Gurobi 8.1.0 (mac64, Python) logging started Thu Mar  7 17:12:52 2019

Academic license - for non-commercial use only

Gurobi 8.1.0 (mac64, Python) logging started Thu Mar  7 17:12:56 2019

Academic license - for non-commercial use only

Gurobi 8.1.0 (mac64, Python) logging started Thu Mar  7 17:12:57 2019

Academic license - for non-commercial use only

Gurobi 8.1.0 (mac64, Python) logging started Thu Mar  7 17:12:59 2019

Academic license - for non-commercial use only

Gurobi 8.1.0 (mac64, Python) logging started Thu Mar  7 17:13:01 2019

Academic license - for non-commercial use only

Gurobi 8.1.0 (mac64, Python) logging started Thu Mar  7 17:13:03 2019

Academic license - for non-commercial use only

Gurobi 8.1.0 (mac64, Python) logging started Thu Mar  7 17:13:06 2019

Academic license - for non-commercial use only

Gurobi 8.1.0 (mac64, Python) logging started Thu Mar  7 17:13:08 2019

Academic license - for non-commercial use only

Gurobi 8.1.0 (mac64, Python) logging started Thu Mar  7 17:13:10 2019

Academic license - for non-commercial use only

Gurobi 8.1.0 (mac64, Python) logging started Thu Mar  7 17:13:13 2019

Academic license - for non-commercial use only

Gurobi 8.1.0 (mac64, Python) logging started Thu Mar  7 17:13:16 2019

Academic license - for non-commercial use only

Gurobi 8.1.0 (mac64, Python) logging started Thu Mar  7 17:13:18 2019

Academic license - for non-commercial use only

Gurobi 8.1.0 (mac64, Python) logging started Thu Mar  7 17:13:20 2019

Academic license - for non-commercial use only

Gurobi 8.1.0 (mac64, Python) logging started Thu Mar  7 17:13:40 2019

Academic license - for non-commercial use only

Gurobi 8.1.0 (mac64, Python) logging started Thu Mar  7 17:13:53 2019

Academic license - for non-commercial use only

Gurobi 8.1.0 (mac64, Python) logging started Thu Mar  7 17:16:09 2019

Academic license - for non-commercial use only

Gurobi 8.1.0 (mac64, Python) logging started Thu Mar  7 17:18:48 2019

Academic license - for non-commercial use only

Gurobi 8.1.0 (mac64, Python) logging started Thu Mar  7 17:19:07 2019

Academic license - for non-commercial use only

Gurobi 8.1.0 (mac64, Python) logging started Thu Mar  7 17:19:19 2019

Academic license - for non-commercial use only

Gurobi 8.1.0 (mac64, Python) logging started Thu Mar  7 17:19:40 2019

Academic license - for non-commercial use only

Gurobi 8.1.0 (mac64, Python) logging started Thu Mar  7 17:20:10 2019

Academic license - for non-commercial use only

Gurobi 8.1.0 (mac64, Python) logging started Thu Mar  7 17:20:36 2019

Academic license - for non-commercial use only

Gurobi 8.1.0 (mac64, Python) logging started Thu Mar  7 17:20:52 2019

Academic license - for non-commercial use only

Gurobi 8.1.0 (mac64, Python) logging started Thu Mar  7 17:21:01 2019

Academic license - for non-commercial use only

Gurobi 8.1.0 (mac64, Python) logging started Thu Mar  7 17:21:14 2019

Academic license - for non-commercial use only

Gurobi 8.1.0 (mac64, Python) logging started Thu Mar  7 17:21:44 2019

Academic license - for non-commercial use only

Gurobi 8.1.0 (mac64, Python) logging started Thu Mar  7 17:22:25 2019

Academic license - for non-commercial use only

Gurobi 8.1.0 (mac64, Python) logging started Thu Mar  7 17:23:47 2019

Academic license - for non-commercial use only

Gurobi 8.1.0 (mac64, Python) logging started Thu Mar  7 17:24:39 2019

Academic license - for non-commercial use only

Gurobi 8.1.0 (mac64, Python) logging started Thu Mar  7 17:25:38 2019

Academic license - for non-commercial use only

Gurobi 8.1.0 (mac64, Python) logging started Thu Mar  7 17:27:06 2019

Academic license - for non-commercial use only

Gurobi 8.1.0 (mac64, Python) logging started Thu Mar  7 17:28:10 2019

Academic license - for non-commercial use only

Gurobi 8.1.0 (mac64, Python) logging started Thu Mar  7 17:28:34 2019

Academic license - for non-commercial use only

Gurobi 8.1.0 (mac64, Python) logging started Thu Mar  7 17:29:06 2019

Academic license - for non-commercial use only

Gurobi 8.1.0 (mac64, Python) logging started Thu Mar  7 17:29:45 2019

Academic license - for non-commercial use only

Gurobi 8.1.0 (mac64, Python) logging started Thu Mar  7 17:31:17 2019

Academic license - for non-commercial use only

Gurobi 8.1.0 (mac64, Python) logging started Thu Mar  7 17:32:11 2019

Academic license - for non-commercial use only

Gurobi 8.1.0 (mac64, Python) logging started Thu Mar  7 17:33:41 2019

Academic license - for non-commercial use only

Gurobi 8.1.0 (mac64, Python) logging started Thu Mar  7 17:35:58 2019

Academic license - for non-commercial use only

Gurobi 8.1.0 (mac64, Python) logging started Thu Mar  7 17:38:47 2019

Academic license - for non-commercial use only

Gurobi 8.1.0 (mac64, Python) logging started Thu Mar  7 17:38:53 2019

Academic license - for non-commercial use only

Gurobi 8.1.0 (mac64, Python) logging started Thu Mar  7 17:39:10 2019

Academic license - for non-commercial use only

Gurobi 8.1.0 (mac64, Python) logging started Thu Mar  7 17:39:13 2019

Academic license - for non-commercial use only

Gurobi 8.1.0 (mac64, Python) logging started Thu Mar  7 17:39:17 2019

Academic license - for non-commercial use only

Gurobi 8.1.0 (mac64, Python) logging started Thu Mar  7 17:40:12 2019

Academic license - for non-commercial use only

Gurobi 8.1.0 (mac64, Python) logging started Thu Mar  7 17:40:25 2019

Academic license - for non-commercial use only

Gurobi 8.1.0 (mac64, Python) logging started Thu Mar  7 17:40:30 2019

Academic license - for non-commercial use only

Gurobi 8.1.0 (mac64, Python) logging started Thu Mar  7 17:40:53 2019

Academic license - for non-commercial use only

Gurobi 8.1.0 (mac64, Python) logging started Thu Mar  7 17:41:10 2019

Academic license - for non-commercial use only

Gurobi 8.1.0 (mac64, Python) logging started Thu Mar  7 17:41:22 2019

Academic license - for non-commercial use only

Gurobi 8.1.0 (mac64, Python) logging started Thu Mar  7 17:41:36 2019

Academic license - for non-commercial use only

Gurobi 8.1.0 (mac64, Python) logging started Thu Mar  7 17:42:00 2019

Academic license - for non-commercial use only

Gurobi 8.1.0 (mac64, Python) logging started Thu Mar  7 17:42:17 2019

Academic license - for non-commercial use only

Gurobi 8.1.0 (mac64, Python) logging started Thu Mar  7 17:42:33 2019

Academic license - for non-commercial use only

Gurobi 8.1.0 (mac64, Python) logging started Thu Mar  7 17:42:46 2019

Academic license - for non-commercial use only

Gurobi 8.1.0 (mac64, Python) logging started Thu Mar  7 17:45:35 2019

Academic license - for non-commercial use only

Gurobi 8.1.0 (mac64, Python) logging started Thu Mar  7 17:45:53 2019

Academic license - for non-commercial use only
